
Gurobi 6.5.2 (win64) logging started 10/18/16 20:32:46

Optimize a model with 19 rows, 0 columns and 0 nonzeros
Coefficient statistics:
  Matrix range    [0e+00, 0e+00]
  Objective range [0e+00, 0e+00]
  Bounds range    [0e+00, 0e+00]
  RHS range       [1e+00, 1e+00]
Presolve time: 0.02s

Solved in 0 iterations and 0.02 seconds
Infeasible model

Gurobi 6.5.2 (win64) logging started 10/18/16 20:34:33

Optimize a model with 19 rows, 30 columns and 64 nonzeros
Coefficient statistics:
  Matrix range    [1e+00, 1e+00]
  Objective range [5e+00, 3e+02]
  Bounds range    [1e+00, 1e+00]
  RHS range       [1e+00, 1e+00]
Found heuristic solution: objective 577
Presolve removed 19 rows and 30 columns
Presolve time: 0.00s
Presolve: All rows and columns removed

Explored 0 nodes (0 simplex iterations) in 0.02 seconds
Thread count was 1 (of 4 available processors)

Optimal solution found (tolerance 1.00e-04)
Best objective 4.910000000000e+02, best bound 4.910000000000e+02, gap 0.0%

Gurobi 6.5.2 (win64) logging started 10/18/16 20:37:06

Optimize a model with 19 rows, 30 columns and 64 nonzeros
Coefficient statistics:
  Matrix range    [1e+00, 1e+00]
  Objective range [5e+00, 3e+02]
  Bounds range    [1e+00, 1e+00]
  RHS range       [1e+00, 1e+00]
Found heuristic solution: objective 577
Presolve removed 19 rows and 30 columns
Presolve time: 0.00s
Presolve: All rows and columns removed

Explored 0 nodes (0 simplex iterations) in 0.00 seconds
Thread count was 1 (of 4 available processors)

Optimal solution found (tolerance 1.00e-04)
Best objective 4.910000000000e+02, best bound 4.910000000000e+02, gap 0.0%

Gurobi 6.5.2 (win64) logging started 10/18/16 20:54:31

Optimize a model with 15 rows, 225 columns and 225 nonzeros
Coefficient statistics:
  Matrix range    [1e+00, 1e+00]
  Objective range [2e+01, 5e+01]
  Bounds range    [0e+00, 0e+00]
  RHS range       [2e+05, 2e+05]
Found heuristic solution: objective 7.93695e+07
Presolve removed 15 rows and 225 columns
Presolve time: 0.00s
Presolve: All rows and columns removed

Explored 0 nodes (0 simplex iterations) in 0.01 seconds
Thread count was 1 (of 4 available processors)

Optimal solution found (tolerance 1.00e-04)
Best objective 5.295135300000e+07, best bound 5.295135300000e+07, gap 0.0%

Gurobi 6.5.2 (win64) logging started 10/18/16 21:08:24

Optimize a model with 15 rows, 225 columns and 225 nonzeros
Coefficient statistics:
  Matrix range    [1e+00, 1e+00]
  Objective range [2e+01, 5e+01]
  Bounds range    [0e+00, 0e+00]
  RHS range       [2e+05, 2e+05]
Found heuristic solution: objective 7.93695e+07
Presolve removed 15 rows and 225 columns
Presolve time: 0.00s
Presolve: All rows and columns removed

Explored 0 nodes (0 simplex iterations) in 0.01 seconds
Thread count was 1 (of 4 available processors)

Optimal solution found (tolerance 1.00e-04)
Best objective 5.295135300000e+07, best bound 5.295135300000e+07, gap 0.0%

Gurobi 6.5.2 (win64) logging started 10/18/16 21:09:10

Optimize a model with 15 rows, 225 columns and 225 nonzeros
Coefficient statistics:
  Matrix range    [1e+00, 1e+00]
  Objective range [2e+01, 5e+01]
  Bounds range    [0e+00, 0e+00]
  RHS range       [2e+05, 2e+05]
Found heuristic solution: objective 7.93695e+07
Presolve removed 15 rows and 225 columns
Presolve time: 0.00s
Presolve: All rows and columns removed

Explored 0 nodes (0 simplex iterations) in 0.01 seconds
Thread count was 1 (of 4 available processors)

Optimal solution found (tolerance 1.00e-04)
Best objective 5.295135300000e+07, best bound 5.295135300000e+07, gap 0.0%

Gurobi 6.5.2 (win64) logging started 10/18/16 21:37:03


Gurobi 6.5.2 (win64) logging started 10/18/16 21:37:13


Gurobi 6.5.2 (win64) logging started 10/18/16 21:38:18


Gurobi 6.5.2 (win64) logging started 10/18/16 21:39:07


Gurobi 6.5.2 (win64) logging started 10/18/16 21:40:00


Gurobi 6.5.2 (win64) logging started 10/18/16 21:40:28


Gurobi 6.5.2 (win64) logging started 10/18/16 22:23:19

Optimize a model with 30 rows, 240 columns and 465 nonzeros
Coefficient statistics:
  Matrix range    [1e+00, 1e+00]
  Objective range [3e+06, 7e+06]
  Bounds range    [0e+00, 0e+00]
  RHS range       [1e+00, 1e+00]
Found heuristic solution: objective 8.12091e+07
Presolve removed 30 rows and 240 columns
Presolve time: 0.00s
Presolve: All rows and columns removed

Explored 0 nodes (0 simplex iterations) in 0.01 seconds
Thread count was 1 (of 4 available processors)

Optimal solution found (tolerance 1.00e-04)
Best objective 5.295135300000e+07, best bound 5.295135300000e+07, gap 0.0%

Gurobi 6.5.2 (win64) logging started 10/18/16 22:25:22

Optimize a model with 19 rows, 30 columns and 64 nonzeros
Coefficient statistics:
  Matrix range    [1e+00, 1e+00]
  Objective range [5e+00, 3e+02]
  Bounds range    [1e+00, 1e+00]
  RHS range       [1e+00, 1e+00]
Found heuristic solution: objective 577
Presolve removed 19 rows and 30 columns
Presolve time: 0.00s
Presolve: All rows and columns removed

Explored 0 nodes (0 simplex iterations) in 0.01 seconds
Thread count was 1 (of 4 available processors)

Optimal solution found (tolerance 1.00e-04)
Best objective 4.910000000000e+02, best bound 4.910000000000e+02, gap 0.0%

Gurobi 6.5.2 (win64) logging started 10/18/16 22:25:31

Optimize a model with 30 rows, 240 columns and 465 nonzeros
Coefficient statistics:
  Matrix range    [1e+00, 1e+00]
  Objective range [3e+06, 7e+06]
  Bounds range    [0e+00, 0e+00]
  RHS range       [1e+00, 1e+00]
Found heuristic solution: objective 8.12091e+07
Presolve removed 30 rows and 240 columns
Presolve time: 0.00s
Presolve: All rows and columns removed

Explored 0 nodes (0 simplex iterations) in 0.01 seconds
Thread count was 1 (of 4 available processors)

Optimal solution found (tolerance 1.00e-04)
Best objective 5.295135300000e+07, best bound 5.295135300000e+07, gap 0.0%

Gurobi 6.5.2 (win64) logging started 10/18/16 22:33:03


Gurobi 6.5.2 (win64) logging started 10/18/16 22:34:31

Optimize a model with 30 rows, 240 columns and 465 nonzeros
Coefficient statistics:
  Matrix range    [1e+00, 1e+00]
  Objective range [3e+06, 7e+06]
  Bounds range    [1e+00, 1e+00]
  RHS range       [1e+00, 1e+00]
Found heuristic solution: objective 8.12091e+07
Presolve removed 30 rows and 240 columns
Presolve time: 0.00s
Presolve: All rows and columns removed

Explored 0 nodes (0 simplex iterations) in 0.02 seconds
Thread count was 1 (of 4 available processors)

Optimal solution found (tolerance 1.00e-04)
Best objective 5.295135300000e+07, best bound 5.295135300000e+07, gap 0.0%

Gurobi 6.5.2 (win64) logging started 10/18/16 22:35:16

Optimize a model with 30 rows, 240 columns and 465 nonzeros
Coefficient statistics:
  Matrix range    [1e+00, 1e+00]
  Objective range [3e+06, 7e+06]
  Bounds range    [1e+00, 1e+00]
  RHS range       [1e+00, 1e+00]
Found heuristic solution: objective 8.12091e+07
Presolve removed 30 rows and 240 columns
Presolve time: 0.00s
Presolve: All rows and columns removed

Explored 0 nodes (0 simplex iterations) in 0.01 seconds
Thread count was 1 (of 4 available processors)

Optimal solution found (tolerance 1.00e-04)
Best objective 5.295135300000e+07, best bound 5.295135300000e+07, gap 0.0%

Gurobi 6.5.2 (win64) logging started 10/18/16 22:41:27

Optimize a model with 30 rows, 240 columns and 465 nonzeros
Coefficient statistics:
  Matrix range    [1e+00, 1e+00]
  Objective range [3e+06, 1e+07]
  Bounds range    [1e+00, 1e+00]
  RHS range       [1e+00, 1e+00]
Found heuristic solution: objective 1.9453e+08
Presolve removed 30 rows and 240 columns
Presolve time: 0.00s
Presolve: All rows and columns removed

Explored 0 nodes (0 simplex iterations) in 0.01 seconds
Thread count was 1 (of 4 available processors)

Optimal solution found (tolerance 1.00e-04)
Best objective 1.662726370000e+08, best bound 1.662726370000e+08, gap 0.0%

Gurobi 6.5.2 (win64) logging started 10/18/16 22:44:36

Optimize a model with 30 rows, 240 columns and 465 nonzeros
Coefficient statistics:
  Matrix range    [1e+00, 1e+00]
  Objective range [3e+06, 1e+07]
  Bounds range    [1e+00, 1e+00]
  RHS range       [1e+00, 1e+00]
Found heuristic solution: objective 1.9453e+08
Presolve removed 30 rows and 240 columns
Presolve time: 0.00s
Presolve: All rows and columns removed

Explored 0 nodes (0 simplex iterations) in 0.00 seconds
Thread count was 1 (of 4 available processors)

Optimal solution found (tolerance 1.00e-04)
Best objective 1.662726370000e+08, best bound 1.662726370000e+08, gap 0.0%

Gurobi 6.5.2 (win64) logging started 10/18/16 22:54:58

Optimize a model with 30 rows, 240 columns and 465 nonzeros
Coefficient statistics:
  Matrix range    [1e+00, 1e+00]
  Objective range [3e+06, 1e+07]
  Bounds range    [1e+00, 1e+00]
  RHS range       [1e+00, 1e+00]
Found heuristic solution: objective 1.9453e+08
Presolve removed 30 rows and 240 columns
Presolve time: 0.00s
Presolve: All rows and columns removed

Explored 0 nodes (0 simplex iterations) in 0.00 seconds
Thread count was 1 (of 4 available processors)

Optimal solution found (tolerance 1.00e-04)
Best objective 1.662726370000e+08, best bound 1.662726370000e+08, gap 0.0%

Gurobi 6.5.2 (win64) logging started 10/18/16 22:55:38

Optimize a model with 30 rows, 240 columns and 465 nonzeros
Coefficient statistics:
  Matrix range    [1e+00, 1e+00]
  Objective range [3e+06, 1e+07]
  Bounds range    [1e+00, 1e+00]
  RHS range       [1e+00, 1e+00]
Found heuristic solution: objective 1.85175e+08
Presolve removed 30 rows and 240 columns
Presolve time: 0.00s
Presolve: All rows and columns removed

Explored 0 nodes (0 simplex iterations) in 0.02 seconds
Thread count was 1 (of 4 available processors)

Optimal solution found (tolerance 1.00e-04)
Best objective 1.569169070000e+08, best bound 1.569169070000e+08, gap 0.0%

Gurobi 6.5.2 (win64) logging started 10/18/16 23:25:09

Optimize a model with 19 rows, 30 columns and 64 nonzeros
Coefficient statistics:
  Matrix range    [1e+00, 1e+00]
  Objective range [5e+00, 3e+02]
  Bounds range    [1e+00, 1e+00]
  RHS range       [1e+00, 1e+00]
Found heuristic solution: objective 577
Presolve removed 19 rows and 30 columns
Presolve time: 0.00s
Presolve: All rows and columns removed

Explored 0 nodes (0 simplex iterations) in 0.01 seconds
Thread count was 1 (of 4 available processors)

Optimal solution found (tolerance 1.00e-04)
Best objective 4.910000000000e+02, best bound 4.910000000000e+02, gap 0.0%

Gurobi 6.5.2 (win64) logging started 10/18/16 23:27:53

Optimize a model with 19 rows, 30 columns and 64 nonzeros
Coefficient statistics:
  Matrix range    [1e+00, 1e+00]
  Objective range [5e+00, 3e+02]
  Bounds range    [1e+00, 1e+00]
  RHS range       [1e+00, 1e+00]
Found heuristic solution: objective 577
Presolve removed 19 rows and 30 columns
Presolve time: 0.00s
Presolve: All rows and columns removed

Explored 0 nodes (0 simplex iterations) in 0.02 seconds
Thread count was 1 (of 4 available processors)

Optimal solution found (tolerance 1.00e-04)
Best objective 4.910000000000e+02, best bound 4.910000000000e+02, gap 0.0%

Gurobi 6.5.2 (win64) logging started 10/18/16 23:29:03

Optimize a model with 19 rows, 30 columns and 64 nonzeros
Coefficient statistics:
  Matrix range    [1e+00, 1e+00]
  Objective range [5e+00, 3e+02]
  Bounds range    [1e+00, 1e+00]
  RHS range       [1e+00, 1e+00]
Found heuristic solution: objective 577
Presolve removed 19 rows and 30 columns
Presolve time: 0.00s
Presolve: All rows and columns removed

Explored 0 nodes (0 simplex iterations) in 0.01 seconds
Thread count was 1 (of 4 available processors)

Optimal solution found (tolerance 1.00e-04)
Best objective 4.910000000000e+02, best bound 4.910000000000e+02, gap 0.0%

Gurobi 6.5.2 (win64) logging started 10/18/16 23:29:17

Optimize a model with 19 rows, 30 columns and 64 nonzeros
Coefficient statistics:
  Matrix range    [1e+00, 1e+00]
  Objective range [5e+00, 3e+02]
  Bounds range    [1e+00, 1e+00]
  RHS range       [1e+00, 1e+00]
Found heuristic solution: objective 577
Presolve removed 19 rows and 30 columns
Presolve time: 0.00s
Presolve: All rows and columns removed

Explored 0 nodes (0 simplex iterations) in 0.01 seconds
Thread count was 1 (of 4 available processors)

Optimal solution found (tolerance 1.00e-04)
Best objective 4.910000000000e+02, best bound 4.910000000000e+02, gap 0.0%

Gurobi 6.5.2 (win64) logging started 10/18/16 23:29:27

Optimize a model with 19 rows, 30 columns and 64 nonzeros
Coefficient statistics:
  Matrix range    [1e+00, 1e+00]
  Objective range [5e+00, 3e+02]
  Bounds range    [1e+00, 1e+00]
  RHS range       [1e+00, 1e+00]
Found heuristic solution: objective 577
Presolve removed 19 rows and 30 columns
Presolve time: 0.00s
Presolve: All rows and columns removed

Explored 0 nodes (0 simplex iterations) in 0.01 seconds
Thread count was 1 (of 4 available processors)

Optimal solution found (tolerance 1.00e-04)
Best objective 4.910000000000e+02, best bound 4.910000000000e+02, gap 0.0%

Gurobi 6.5.2 (win64) logging started 10/18/16 23:29:38

Optimize a model with 30 rows, 240 columns and 465 nonzeros
Coefficient statistics:
  Matrix range    [1e+00, 1e+00]
  Objective range [3e+06, 1e+07]
  Bounds range    [1e+00, 1e+00]
  RHS range       [1e+00, 1e+00]
Found heuristic solution: objective 1.9453e+08
Presolve removed 30 rows and 240 columns
Presolve time: 0.00s
Presolve: All rows and columns removed

Explored 0 nodes (0 simplex iterations) in 0.02 seconds
Thread count was 1 (of 4 available processors)

Optimal solution found (tolerance 1.00e-04)
Best objective 1.662726370000e+08, best bound 1.662726370000e+08, gap 0.0%

Gurobi 6.5.2 (win64) logging started 10/18/16 23:30:14

Optimize a model with 30 rows, 240 columns and 465 nonzeros
Coefficient statistics:
  Matrix range    [1e+00, 1e+00]
  Objective range [3e+06, 1e+07]
  Bounds range    [1e+00, 1e+00]
  RHS range       [1e+00, 1e+00]
Found heuristic solution: objective 1.9453e+08
Presolve removed 30 rows and 240 columns
Presolve time: 0.00s
Presolve: All rows and columns removed

Explored 0 nodes (0 simplex iterations) in 0.02 seconds
Thread count was 1 (of 4 available processors)

Optimal solution found (tolerance 1.00e-04)
Best objective 1.662726370000e+08, best bound 1.662726370000e+08, gap 0.0%

Gurobi 6.5.2 (win64) logging started 10/18/16 23:32:19

Optimize a model with 30 rows, 240 columns and 465 nonzeros
Coefficient statistics:
  Matrix range    [1e+00, 1e+00]
  Objective range [3e+06, 1e+07]
  Bounds range    [1e+00, 1e+00]
  RHS range       [1e+00, 1e+00]
Found heuristic solution: objective 1.9453e+08
Presolve removed 30 rows and 240 columns
Presolve time: 0.00s
Presolve: All rows and columns removed

Explored 0 nodes (0 simplex iterations) in 0.01 seconds
Thread count was 1 (of 4 available processors)

Optimal solution found (tolerance 1.00e-04)
Best objective 1.662726370000e+08, best bound 1.662726370000e+08, gap 0.0%

Gurobi 6.5.2 (win64) logging started 10/18/16 23:32:34

Optimize a model with 30 rows, 240 columns and 465 nonzeros
Coefficient statistics:
  Matrix range    [1e+00, 1e+00]
  Objective range [3e+06, 1e+07]
  Bounds range    [1e+00, 1e+00]
  RHS range       [1e+00, 1e+00]
Found heuristic solution: objective 1.9453e+08
Presolve removed 30 rows and 240 columns
Presolve time: 0.00s
Presolve: All rows and columns removed

Explored 0 nodes (0 simplex iterations) in 0.02 seconds
Thread count was 1 (of 4 available processors)

Optimal solution found (tolerance 1.00e-04)
Best objective 1.662726370000e+08, best bound 1.662726370000e+08, gap 0.0%

Gurobi 6.5.2 (win64) logging started 10/18/16 23:46:43

Optimize a model with 240 rows, 240 columns and 675 nonzeros
Coefficient statistics:
  Matrix range    [1e+00, 1e+00]
  Objective range [3e+06, 1e+07]
  Bounds range    [1e+00, 1e+00]
  RHS range       [1e+00, 1e+00]
Found heuristic solution: objective 1.9453e+08
Presolve removed 240 rows and 240 columns
Presolve time: 0.00s
Presolve: All rows and columns removed

Explored 0 nodes (0 simplex iterations) in 0.01 seconds
Thread count was 1 (of 4 available processors)

Optimal solution found (tolerance 1.00e-04)
Best objective 1.662726370000e+08, best bound 1.662726370000e+08, gap 0.0%

Gurobi 6.5.2 (win64) logging started 10/18/16 23:48:19

Optimize a model with 240 rows, 240 columns and 675 nonzeros
Coefficient statistics:
  Matrix range    [1e+00, 1e+00]
  Objective range [3e+06, 1e+07]
  Bounds range    [1e+00, 1e+00]
  RHS range       [1e+00, 1e+00]
Found heuristic solution: objective 1.9453e+08
Presolve removed 240 rows and 240 columns
Presolve time: 0.00s
Presolve: All rows and columns removed

Explored 0 nodes (0 simplex iterations) in 0.01 seconds
Thread count was 1 (of 4 available processors)

Optimal solution found (tolerance 1.00e-04)
Best objective 1.662726370000e+08, best bound 1.662726370000e+08, gap 0.0%

Gurobi 6.5.2 (win64) logging started 10/18/16 23:49:12

Optimize a model with 240 rows, 240 columns and 675 nonzeros
Coefficient statistics:
  Matrix range    [1e+00, 1e+00]
  Objective range [3e+06, 1e+07]
  Bounds range    [1e+00, 1e+00]
  RHS range       [1e+00, 1e+00]
Found heuristic solution: objective 1.9453e+08
Presolve removed 240 rows and 240 columns
Presolve time: 0.00s
Presolve: All rows and columns removed

Explored 0 nodes (0 simplex iterations) in 0.02 seconds
Thread count was 1 (of 4 available processors)

Optimal solution found (tolerance 1.00e-04)
Best objective 1.662726370000e+08, best bound 1.662726370000e+08, gap 0.0%

Gurobi 6.5.2 (win64) logging started 10/18/16 23:51:09

Optimize a model with 240 rows, 240 columns and 675 nonzeros
Coefficient statistics:
  Matrix range    [1e+00, 1e+00]
  Objective range [3e+06, 1e+07]
  Bounds range    [1e+00, 1e+00]
  RHS range       [1e+00, 1e+00]
Found heuristic solution: objective 1.9453e+08
Presolve removed 240 rows and 240 columns
Presolve time: 0.00s
Presolve: All rows and columns removed

Explored 0 nodes (0 simplex iterations) in 0.01 seconds
Thread count was 1 (of 4 available processors)

Optimal solution found (tolerance 1.00e-04)
Best objective 1.662726370000e+08, best bound 1.662726370000e+08, gap 0.0%

Gurobi 6.5.2 (win64) logging started 10/19/16 11:12:32

Optimize a model with 19 rows, 30 columns and 64 nonzeros
Coefficient statistics:
  Matrix range    [1e+00, 1e+00]
  Objective range [5e+00, 3e+02]
  Bounds range    [1e+00, 1e+00]
  RHS range       [1e+00, 1e+00]
Found heuristic solution: objective 577
Presolve removed 19 rows and 30 columns
Presolve time: 0.00s
Presolve: All rows and columns removed

Explored 0 nodes (0 simplex iterations) in 0.01 seconds
Thread count was 1 (of 4 available processors)

Optimal solution found (tolerance 1.00e-04)
Best objective 4.910000000000e+02, best bound 4.910000000000e+02, gap 0.0%

Gurobi 6.5.2 (win64) logging started 10/19/16 11:13:16

Optimize a model with 19 rows, 30 columns and 64 nonzeros
Coefficient statistics:
  Matrix range    [1e+00, 1e+00]
  Objective range [5e+00, 3e+02]
  Bounds range    [1e+00, 1e+00]
  RHS range       [1e+00, 1e+00]
Found heuristic solution: objective 577
Presolve removed 19 rows and 30 columns
Presolve time: 0.00s
Presolve: All rows and columns removed

Explored 0 nodes (0 simplex iterations) in 0.01 seconds
Thread count was 1 (of 4 available processors)

Optimal solution found (tolerance 1.00e-04)
Best objective 4.910000000000e+02, best bound 4.910000000000e+02, gap 0.0%

Gurobi 6.5.2 (win64) logging started 10/19/16 11:13:34

Optimize a model with 19 rows, 30 columns and 64 nonzeros
Coefficient statistics:
  Matrix range    [1e+00, 1e+00]
  Objective range [5e+00, 3e+02]
  Bounds range    [1e+00, 1e+00]
  RHS range       [1e+00, 1e+00]
Found heuristic solution: objective 577
Presolve removed 19 rows and 30 columns
Presolve time: 0.00s
Presolve: All rows and columns removed

Explored 0 nodes (0 simplex iterations) in 0.01 seconds
Thread count was 1 (of 4 available processors)

Optimal solution found (tolerance 1.00e-04)
Best objective 4.910000000000e+02, best bound 4.910000000000e+02, gap 0.0%

Gurobi 6.5.2 (win64) logging started 10/19/16 11:13:48

Optimize a model with 19 rows, 30 columns and 64 nonzeros
Coefficient statistics:
  Matrix range    [1e+00, 1e+00]
  Objective range [5e+00, 3e+02]
  Bounds range    [1e+00, 1e+00]
  RHS range       [1e+00, 1e+00]
Found heuristic solution: objective 577
Presolve removed 19 rows and 30 columns
Presolve time: 0.00s
Presolve: All rows and columns removed

Explored 0 nodes (0 simplex iterations) in 0.01 seconds
Thread count was 1 (of 4 available processors)

Optimal solution found (tolerance 1.00e-04)
Best objective 4.910000000000e+02, best bound 4.910000000000e+02, gap 0.0%

Gurobi 6.5.2 (win64) logging started 10/19/16 11:14:39

Optimize a model with 19 rows, 30 columns and 64 nonzeros
Coefficient statistics:
  Matrix range    [1e+00, 1e+00]
  Objective range [5e+00, 3e+02]
  Bounds range    [1e+00, 1e+00]
  RHS range       [1e+00, 1e+00]
Found heuristic solution: objective 577
Presolve removed 19 rows and 30 columns
Presolve time: 0.00s
Presolve: All rows and columns removed

Explored 0 nodes (0 simplex iterations) in 0.01 seconds
Thread count was 1 (of 4 available processors)

Optimal solution found (tolerance 1.00e-04)
Best objective 4.910000000000e+02, best bound 4.910000000000e+02, gap 0.0%

Gurobi 6.5.2 (win64) logging started 10/19/16 11:15:07

Optimize a model with 19 rows, 30 columns and 64 nonzeros
Coefficient statistics:
  Matrix range    [1e+00, 1e+00]
  Objective range [5e+00, 3e+02]
  Bounds range    [1e+00, 1e+00]
  RHS range       [1e+00, 1e+00]
Found heuristic solution: objective 577
Presolve removed 19 rows and 30 columns
Presolve time: 0.00s
Presolve: All rows and columns removed

Explored 0 nodes (0 simplex iterations) in 0.01 seconds
Thread count was 1 (of 4 available processors)

Optimal solution found (tolerance 1.00e-04)
Best objective 4.910000000000e+02, best bound 4.910000000000e+02, gap 0.0%

Gurobi 6.5.2 (win64) logging started 10/19/16 11:15:26

Optimize a model with 19 rows, 30 columns and 64 nonzeros
Coefficient statistics:
  Matrix range    [1e+00, 1e+00]
  Objective range [5e+00, 3e+02]
  Bounds range    [1e+00, 1e+00]
  RHS range       [1e+00, 1e+00]
Found heuristic solution: objective 577
Presolve removed 19 rows and 30 columns
Presolve time: 0.00s
Presolve: All rows and columns removed

Explored 0 nodes (0 simplex iterations) in 0.02 seconds
Thread count was 1 (of 4 available processors)

Optimal solution found (tolerance 1.00e-04)
Best objective 4.910000000000e+02, best bound 4.910000000000e+02, gap 0.0%

Gurobi 6.5.2 (win64) logging started 10/19/16 11:36:54

Optimize a model with 19 rows, 30 columns and 64 nonzeros
Coefficient statistics:
  Matrix range    [1e+00, 1e+00]
  Objective range [5e+00, 3e+02]
  Bounds range    [1e+00, 1e+00]
  RHS range       [1e+00, 1e+00]
Found heuristic solution: objective 577
Presolve removed 19 rows and 30 columns
Presolve time: 0.00s
Presolve: All rows and columns removed

Explored 0 nodes (0 simplex iterations) in 0.01 seconds
Thread count was 1 (of 4 available processors)

Optimal solution found (tolerance 1.00e-04)
Best objective 4.910000000000e+02, best bound 4.910000000000e+02, gap 0.0%

Gurobi 6.5.2 (win64) logging started 10/19/16 11:40:25

Optimize a model with 19 rows, 30 columns and 64 nonzeros
Coefficient statistics:
  Matrix range    [1e+00, 1e+00]
  Objective range [5e+00, 3e+02]
  Bounds range    [1e+00, 1e+00]
  RHS range       [1e+00, 1e+00]
Found heuristic solution: objective 501
Presolve removed 19 rows and 30 columns
Presolve time: 0.00s
Presolve: All rows and columns removed

Explored 0 nodes (0 simplex iterations) in 0.01 seconds
Thread count was 1 (of 4 available processors)

Optimal solution found (tolerance 1.00e-04)
Best objective 4.910000000000e+02, best bound 4.910000000000e+02, gap 0.0%

Gurobi 6.5.2 (win64) logging started 10/19/16 11:40:41

Optimize a model with 19 rows, 30 columns and 64 nonzeros
Coefficient statistics:
  Matrix range    [1e+00, 1e+00]
  Objective range [5e+00, 3e+02]
  Bounds range    [1e+00, 1e+00]
  RHS range       [1e+00, 1e+00]
Found heuristic solution: objective 501
Presolve removed 19 rows and 30 columns
Presolve time: 0.00s
Presolve: All rows and columns removed

Explored 0 nodes (0 simplex iterations) in 0.01 seconds
Thread count was 1 (of 4 available processors)

Optimal solution found (tolerance 1.00e-04)
Best objective 4.910000000000e+02, best bound 4.910000000000e+02, gap 0.0%

Gurobi 6.5.2 (win64) logging started 10/19/16 11:40:48

Optimize a model with 19 rows, 30 columns and 64 nonzeros
Coefficient statistics:
  Matrix range    [1e+00, 1e+00]
  Objective range [5e+00, 3e+02]
  Bounds range    [1e+00, 1e+00]
  RHS range       [1e+00, 1e+00]
Found heuristic solution: objective 577
Presolve removed 19 rows and 30 columns
Presolve time: 0.00s
Presolve: All rows and columns removed

Explored 0 nodes (0 simplex iterations) in 0.01 seconds
Thread count was 1 (of 4 available processors)

Optimal solution found (tolerance 1.00e-04)
Best objective 4.910000000000e+02, best bound 4.910000000000e+02, gap 0.0%
